WARNING: for repeatability, setting FPU to use double precision
============================[ Problem Statistics ]=============================
|                                                                             |
|  Number of variables:          7567                                         |
|  Number of clauses:           37890                                         |
|  Parse time:                   0.01 s                                       |
|                                                                             |
============================[ Search Statistics ]==============================
| Conflicts |          ORIGINAL         |          LEARNT          | Progress |
|           |    Vars  Clauses Literals |    Limit  Clauses Lit/Cl |          |
===============================================================================
|       100 |    7567    37890   144585 |    13893      100      6 |  0.000 % |
|       250 |    7567    37890   144585 |    15282      250      8 |  0.000 % |
|       475 |    7567    37890   144585 |    16810      475     13 |  0.000 % |
|       812 |    7567    37890   144585 |    18491      812     15 |  0.000 % |
|      1318 |    7567    37890   144585 |    20340     1318     17 |  0.000 % |
|      2077 |    7567    37890   144585 |    22374     2077     18 |  0.000 % |
|      3216 |    7567    37890   144585 |    24612     3216     20 |  0.000 % |
|      4924 |    7567    37890   144585 |    27073     4924     21 |  0.000 % |
|      7486 |    7567    37890   144585 |    29780     7486     21 |  0.000 % |
|     11330 |    7567    37890   144585 |    32758    11330     21 |  0.000 % |
|     17096 |    7567    37890   144585 |    36034    17096     23 |  0.000 % |
|     25745 |    7567    37890   144585 |    39638    25745     24 |  0.000 % |
|     38719 |    7567    37890   144585 |    43602    38719     24 |  0.000 % |
|     58180 |    7567    37890   144585 |    47962    27535     24 |  0.000 % |
|     87372 |    7567    37890   144585 |    52758    23823     23 |  0.000 % |
|    131161 |    7567    37890   144585 |    58034    30440     22 |  0.000 % |
|    196845 |    7567    37890   144585 |    63837    54630     26 |  0.000 % |
|    295371 |    7567    37890   144585 |    70221    56084     26 |  0.000 % |
|    443160 |    7567    37890   144585 |    77243    43757     31 |  0.000 % |
|    664843 |    7567    37890   144585 |    84968    18513     23 |  0.000 % |
|    997368 |    7567    37890   144585 |    93465    75293     33 |  0.000 % |
|   1496156 |    7567    37890   144585 |   102811    32580     21 |  0.000 % |
|   2244338 |    7567    37890   144585 |   113092    91159     38 |  0.000 % |
===============================================================================
restarts              : 4987
conflicts             : 2831134        (24696 /sec)
decisions             : 5738355        (0.00 % random) (50056 /sec)
propagations          : 538268638      (4695395 /sec)
conflict literals     : 91177842       (14.55 % deleted)
Memory used           : 82.00 MB
CPU time              : 114.638 s

SATISFIABLE
